p cnf 2457 877
-2152 2297 0
-2297 2152 0
-2299 -2300 0
-2154 2299 0
-2155 2300 0
-2299 2154 0
-2300 2155 0
-2302 -2303 0
-2157 2302 0
-2158 2303 0
-2302 2157 0
-2303 2158 0
-2305 -2306 0
-2305 -2307 0
-2306 -2307 0
-2160 2305 0
-2161 2306 0
-2162 2307 0
-2305 2160 0
-2306 2161 0
-2307 2162 0
-2309 -2310 0
-2164 2309 0
-2165 2310 0
-2309 2164 0
-2310 2165 0
-2312 -2313 0
-2312 -2314 0
-2313 -2314 0
-2167 2312 0
-2168 2313 0
-2169 2314 0
-2312 2167 0
-2313 2168 0
-2314 2169 0
-2316 -2317 0
-2171 2316 0
-2172 2317 0
-2316 2171 0
-2317 2172 0
-2319 -2320 0
-2319 -2321 0
-2320 -2321 0
-2174 2319 0
-2175 2320 0
-2176 2321 0
-2319 2174 0
-2320 2175 0
-2321 2176 0
-2323 -2324 0
-2178 2323 0
-2179 2324 0
-2323 2178 0
-2324 2179 0
-2326 -2327 0
-2326 -2328 0
-2327 -2328 0
-2181 2326 0
-2182 2327 0
-2183 2328 0
-2326 2181 0
-2327 2182 0
-2328 2183 0
-2330 -2331 0
-2185 2330 0
-2186 2331 0
-2330 2185 0
-2331 2186 0
-2333 -2334 0
-2333 -2335 0
-2334 -2335 0
-2188 2333 0
-2189 2334 0
-2190 2335 0
-2333 2188 0
-2334 2189 0
-2335 2190 0
-2337 -2338 0
-2192 2337 0
-2193 2338 0
-2337 2192 0
-2338 2193 0
-2340 -2341 0
-2340 -2342 0
-2341 -2342 0
-2195 2340 0
-2196 2341 0
-2197 2342 0
-2340 2195 0
-2341 2196 0
-2342 2197 0
-2344 -2345 0
-2199 2344 0
-2200 2345 0
-2344 2199 0
-2345 2200 0
-2347 -2348 0
-2347 -2349 0
-2348 -2349 0
-2202 2347 0
-2203 2348 0
-2204 2349 0
-2347 2202 0
-2348 2203 0
-2349 2204 0
-2351 -2352 0
-2206 2351 0
-2207 2352 0
-2351 2206 0
-2352 2207 0
-2354 -2355 0
-2354 -2356 0
-2355 -2356 0
-2209 2355 0
-2210 2356 0
-2211 2354 0
-2212 2354 0
-2354 2211 2212 0
-2355 2209 0
-2356 2210 0
-2359 2364 2365 2366 2367 2368 0
-2364 -2365 0
-2364 -2366 0
-2364 -2367 0
-2364 -2368 0
-2365 -2366 0
-2365 -2367 0
-2365 -2368 0
-2366 -2367 0
-2366 -2368 0
-2367 -2368 0
-2359 2369 2370 2371 2372 2373 2374 2375 0
-2369 -2370 0
-2369 -2371 0
-2369 -2372 0
-2369 -2373 0
-2369 -2374 0
-2369 -2375 0
-2370 -2371 0
-2370 -2372 0
-2370 -2373 0
-2370 -2374 0
-2370 -2375 0
-2371 -2372 0
-2371 -2373 0
-2371 -2374 0
-2371 -2375 0
-2372 -2373 0
-2372 -2374 0
-2372 -2375 0
-2373 -2374 0
-2373 -2375 0
-2374 -2375 0
-2359 2376 2377 2378 2379 2380 2381 2382 2383 0
-2376 -2377 0
-2376 -2378 0
-2376 -2379 0
-2376 -2380 0
-2376 -2381 0
-2376 -2382 0
-2376 -2383 0
-2377 -2378 0
-2377 -2379 0
-2377 -2380 0
-2377 -2381 0
-2377 -2382 0
-2377 -2383 0
-2378 -2379 0
-2378 -2380 0
-2378 -2381 0
-2378 -2382 0
-2378 -2383 0
-2379 -2380 0
-2379 -2381 0
-2379 -2382 0
-2379 -2383 0
-2380 -2381 0
-2380 -2382 0
-2380 -2383 0
-2381 -2382 0
-2381 -2383 0
-2382 -2383 0
-2359 2361 0
-2359 2363 0
-2359 2362 0
-2358 -2359 0
-2367 -2369 -2361 2257 0
-2367 -2374 -2361 2264 0
-2367 -2370 -2361 2242 0
-2365 -2373 -2361 2243 0
-2367 -2375 -2361 2245 0
-2364 -2370 -2361 2246 0
-2366 -2370 -2361 2260 0
-2368 -2373 -2361 2275 0
-2366 -2375 -2361 2247 0
-2367 -2372 -2361 2249 0
-2366 -2373 -2361 2268 0
-2364 -2373 -2361 2261 0
-2368 -2374 -2361 2251 0
-2368 -2370 -2361 2276 0
-2364 -2374 -2361 2277 0
-2367 -2371 -2361 2270 0
-2365 -2370 -2361 2271 0
-2368 -2369 -2361 2254 0
-2368 -2371 -2361 2272 0
-2365 -2375 -2361 2263 0
-2368 -2375 -2361 2256 0
-2367 -2373 -2361 2273 0
-2364 -2375 -2361 2280 0
-2365 -2371 -2361 2281 0
-2364 -2371 -2361 2282 0
-2377 -2362 2258 0
-2382 -2362 2250 0
-2383 -2362 2265 0
-2378 -2362 2244 0
-2381 -2362 2269 0
-2379 -2362 2253 0
-2380 -2362 2262 0
-2376 -2362 2279 0
-2364 -2363 2105 0
-2368 -2363 2082 0
-2365 -2363 2083 0
-2366 -2363 2098 0
-2367 -2363 2113 0
-2359 -2365 -2369 0
-2359 -2365 -2372 0
-2359 -2365 -2374 0
-2359 -2366 -2369 0
-2359 -2366 -2371 0
-2359 -2366 -2372 0
-2359 -2366 -2374 0
-2359 -2368 -2372 0
-2359 -2364 -2369 0
-2359 -2364 -2372 0
-2359 -2365 -2381 0
-2359 -2365 -2382 0
-2359 -2365 -2379 0
-2359 -2365 -2376 0
-2359 -2366 -2381 0
-2359 -2366 -2382 0
-2359 -2366 -2379 0
-2359 -2366 -2376 0
-2359 -2366 -2378 0
-2359 -2368 -2382 0
-2359 -2368 -2379 0
-2359 -2367 -2382 0
-2359 -2364 -2382 0
-2359 -2364 -2379 0
-2359 -2364 -2376 0
-2240 2359 0
-2239 2358 0
-2358 2239 0
-2359 2240 0
-2384 2388 0
-2386 2388 0
-2385 -2388 0
-2387 -2388 0
-2082 2389 -2359 2368 0
-2082 2389 2359 0
2082 -2389 -2359 2372 0
2082 -2389 2359 0
-2083 2390 -2359 2365 0
-2083 2390 2359 0
2083 -2390 -2359 2374 0
2083 -2390 2359 0
-2242 2391 -2359 -2367 2370 0
-2242 2391 -2359 2367 0
-2242 2391 2359 0
2242 -2391 -2359 -2367 2377 0
2242 -2391 -2359 2367 0
2242 -2391 2359 0
-2243 2392 -2359 -2365 2373 0
-2243 2392 -2359 2365 0
-2243 2392 2359 0
2243 -2392 -2359 -2365 2380 0
2243 -2392 -2359 2365 0
2243 -2392 2359 0
-2244 2393 -2359 2378 0
-2244 2393 2359 0
2244 -2393 -2359 2366 0
2244 -2393 2359 0
-2245 2394 -2359 -2367 2375 0
-2245 2394 -2359 2367 0
-2245 2394 2359 0
2245 -2394 -2359 -2367 2383 0
2245 -2394 -2359 2367 0
2245 -2394 2359 0
-2246 2395 -2359 -2364 2370 0
-2246 2395 -2359 2364 0
-2246 2395 2359 0
2246 -2395 -2359 -2364 2377 0
2246 -2395 -2359 2364 0
2246 -2395 2359 0
-2088 2396 0
2088 -2396 -2359 2375 0
2088 -2396 2359 0
-2247 2397 -2359 -2366 2375 0
-2247 2397 -2359 2366 0
-2247 2397 2359 0
2247 -2397 -2359 -2366 2383 0
2247 -2397 -2359 2366 0
2247 -2397 2359 0
-2249 2398 -2359 -2367 2372 0
-2249 2398 -2359 2367 0
-2249 2398 2359 0
2249 -2398 -2359 -2367 2379 0
2249 -2398 -2359 2367 0
2249 -2398 2359 0
-2250 2399 -2359 2382 0
-2250 2399 2359 0
2250 -2399 -2359 2367 0
2250 -2399 2359 0
-2251 2400 -2359 -2368 2374 0
-2251 2400 -2359 2368 0
-2251 2400 2359 0
2251 -2400 -2359 -2368 2381 0
2251 -2400 -2359 2368 0
2251 -2400 2359 0
-2253 2401 -2359 2379 0
-2253 2401 2359 0
2253 -2401 -2359 2368 0
2253 -2401 2359 0
-2254 2402 -2359 -2368 2369 0
-2254 2402 -2359 2368 0
-2254 2402 2359 0
2254 -2402 -2359 -2368 2376 0
2254 -2402 -2359 2368 0
2254 -2402 2359 0
-2256 2403 -2359 -2368 2375 0
-2256 2403 -2359 2368 0
-2256 2403 2359 0
2256 -2403 -2359 -2368 2383 0
2256 -2403 -2359 2368 0
2256 -2403 2359 0
-2257 2404 -2359 -2367 2369 0
-2257 2404 -2359 2367 0
-2257 2404 2359 0
2257 -2404 -2359 -2367 2376 0
2257 -2404 -2359 2367 0
2257 -2404 2359 0
-2258 2405 -2359 2377 0
-2258 2405 2359 0
2258 -2405 0
-2098 2406 -2359 2366 0
-2098 2406 2359 0
2098 -2406 -2359 2371 0
2098 -2406 2359 0
-2260 2407 -2359 -2366 2370 0
-2260 2407 -2359 2366 0
-2260 2407 2359 0
2260 -2407 -2359 -2366 2377 0
2260 -2407 -2359 2366 0
2260 -2407 2359 0
-2261 2408 -2359 -2364 2373 0
-2261 2408 -2359 2364 0
-2261 2408 2359 0
2261 -2408 -2359 -2364 2380 0
2261 -2408 -2359 2364 0
2261 -2408 2359 0
-2102 2409 0
2102 -2409 -2359 2370 0
2102 -2409 2359 0
-2262 2410 -2359 2380 0
-2262 2410 2359 0
2262 -2410 0
-2263 2411 -2359 -2365 2375 0
-2263 2411 -2359 2365 0
-2263 2411 2359 0
2263 -2411 -2359 -2365 2383 0
2263 -2411 -2359 2365 0
2263 -2411 2359 0
-2264 2412 -2359 -2367 2374 0
-2264 2412 -2359 2367 0
-2264 2412 2359 0
2264 -2412 -2359 -2367 2381 0
2264 -2412 -2359 2367 0
2264 -2412 2359 0
-2265 2413 -2359 2383 0
-2265 2413 2359 0
2265 -2413 0
-2105 2414 -2359 2364 0
-2105 2414 2359 0
2105 -2414 -2359 2369 0
2105 -2414 2359 0
-2107 2415 0
2107 -2415 -2359 2373 0
2107 -2415 2359 0
-2268 2416 -2359 -2366 2373 0
-2268 2416 -2359 2366 0
-2268 2416 2359 0
2268 -2416 -2359 -2366 2380 0
2268 -2416 -2359 2366 0
2268 -2416 2359 0
-2269 2417 -2359 2381 0
-2269 2417 2359 0
2269 -2417 -2359 2365 0
2269 -2417 2359 0
-2270 2418 -2359 -2367 2371 0
-2270 2418 -2359 2367 0
-2270 2418 2359 0
2270 -2418 -2359 -2367 2378 0
2270 -2418 -2359 2367 0
2270 -2418 2359 0
-2271 2419 -2359 -2365 2370 0
-2271 2419 -2359 2365 0
-2271 2419 2359 0
2271 -2419 -2359 -2365 2377 0
2271 -2419 -2359 2365 0
2271 -2419 2359 0
-2272 2420 -2359 -2368 2371 0
-2272 2420 -2359 2368 0
-2272 2420 2359 0
2272 -2420 -2359 -2368 2378 0
2272 -2420 -2359 2368 0
2272 -2420 2359 0
-2113 2421 -2359 2367 0
-2113 2421 2359 0
2113 -2421 0
-2273 2422 -2359 -2367 2373 0
-2273 2422 -2359 2367 0
-2273 2422 2359 0
2273 -2422 -2359 -2367 2380 0
2273 -2422 -2359 2367 0
2273 -2422 2359 0
-2275 2423 -2359 -2368 2373 0
-2275 2423 -2359 2368 0
-2275 2423 2359 0
2275 -2423 -2359 -2368 2380 0
2275 -2423 -2359 2368 0
2275 -2423 2359 0
-2276 2424 -2359 -2368 2370 0
-2276 2424 -2359 2368 0
-2276 2424 2359 0
2276 -2424 -2359 -2368 2377 0
2276 -2424 -2359 2368 0
2276 -2424 2359 0
-2277 2425 -2359 -2364 2374 0
-2277 2425 -2359 2364 0
-2277 2425 2359 0
2277 -2425 -2359 -2364 2381 0
2277 -2425 -2359 2364 0
2277 -2425 2359 0
-2279 2426 -2359 2376 0
-2279 2426 2359 0
2279 -2426 -2359 2364 0
2279 -2426 2359 0
-2280 2427 -2359 -2364 2375 0
-2280 2427 -2359 2364 0
-2280 2427 2359 0
2280 -2427 -2359 -2364 2383 0
2280 -2427 -2359 2364 0
2280 -2427 2359 0
-2281 2428 -2359 -2365 2371 0
-2281 2428 -2359 2365 0
-2281 2428 2359 0
2281 -2428 -2359 -2365 2378 0
2281 -2428 -2359 2365 0
2281 -2428 2359 0
-2282 2429 -2359 -2364 2371 0
-2282 2429 -2359 2364 0
-2282 2429 2359 0
2282 -2429 -2359 -2364 2378 0
2282 -2429 -2359 2364 0
2282 -2429 2359 0
-2385 2440 2441 2442 2443 2444 0
-2440 -2441 0
-2440 -2442 0
-2440 -2443 0
-2440 -2444 0
-2441 -2442 0
-2441 -2443 0
-2441 -2444 0
-2442 -2443 0
-2442 -2444 0
-2443 -2444 0
-2385 2445 2446 2447 2448 2449 2450 2451 2452 0
-2445 -2446 0
-2445 -2447 0
-2445 -2448 0
-2445 -2449 0
-2445 -2450 0
-2445 -2451 0
-2445 -2452 0
-2446 -2447 0
-2446 -2448 0
-2446 -2449 0
-2446 -2450 0
-2446 -2451 0
-2446 -2452 0
-2447 -2448 0
-2447 -2449 0
-2447 -2450 0
-2447 -2451 0
-2447 -2452 0
-2448 -2449 0
-2448 -2450 0
-2448 -2451 0
-2448 -2452 0
-2449 -2450 0
-2449 -2451 0
-2449 -2452 0
-2450 -2451 0
-2450 -2452 0
-2451 -2452 0
-2385 2432 0
-2385 2431 0
-2386 2396 0
-2386 2259 0
-2387 2445 2446 2447 2448 2449 2450 2451 2452 0
-2445 -2446 0
-2445 -2447 0
-2445 -2448 0
-2445 -2449 0
-2445 -2450 0
-2445 -2451 0
-2445 -2452 0
-2446 -2447 0
-2446 -2448 0
-2446 -2449 0
-2446 -2450 0
-2446 -2451 0
-2446 -2452 0
-2447 -2448 0
-2447 -2449 0
-2447 -2450 0
-2447 -2451 0
-2447 -2452 0
-2448 -2449 0
-2448 -2450 0
-2448 -2451 0
-2448 -2452 0
-2449 -2450 0
-2449 -2451 0
-2449 -2452 0
-2450 -2451 0
-2450 -2452 0
-2451 -2452 0
-2387 2440 2441 2442 2443 2444 0
-2440 -2441 0
-2440 -2442 0
-2440 -2443 0
-2440 -2444 0
-2441 -2442 0
-2441 -2443 0
-2441 -2444 0
-2442 -2443 0
-2442 -2444 0
-2443 -2444 0
-2387 2436 0
-2387 2437 0
-2384 -2385 0
-2384 -2386 0
-2384 -2387 0
-2385 -2386 0
-2385 -2387 0
-2386 -2387 0
-2377 2430 -2405 0
-2382 2430 -2399 0
-2383 2430 -2413 0
-2378 2430 -2393 0
-2381 2430 -2417 0
-2379 2430 -2401 0
-2380 2430 -2410 0
-2376 2430 -2426 0
-2445 -2431 2267 0
-2450 -2431 2252 0
-2446 -2431 2278 0
-2451 -2431 2255 0
-2449 -2431 2259 0
-2448 -2431 2274 0
-2447 -2431 2266 0
-2452 -2431 2248 0
-2440 -2432 2414 0
-2444 -2432 2389 0
-2441 -2432 2390 0
-2442 -2432 2406 0
-2443 -2432 2421 0
-2364 -2433 2426 0
-2367 -2433 2399 0
-2366 -2433 2393 0
-2365 -2433 2417 0
-2368 -2433 2401 0
-2364 2434 -2414 0
-2368 2434 -2389 0
-2365 2434 -2390 0
-2366 2434 -2406 0
-2367 2434 -2421 0
-2367 -2369 2435 -2404 0
-2367 -2374 2435 -2412 0
-2367 -2370 2435 -2391 0
-2365 -2373 2435 -2392 0
-2367 -2375 2435 -2394 0
-2364 -2370 2435 -2395 0
-2366 -2370 2435 -2407 0
-2368 -2373 2435 -2423 0
-2366 -2375 2435 -2397 0
-2367 -2372 2435 -2398 0
-2366 -2373 2435 -2416 0
-2364 -2373 2435 -2408 0
-2368 -2374 2435 -2400 0
-2368 -2370 2435 -2424 0
-2364 -2374 2435 -2425 0
-2367 -2371 2435 -2418 0
-2365 -2370 2435 -2419 0
-2368 -2369 2435 -2402 0
-2368 -2371 2435 -2420 0
-2365 -2375 2435 -2411 0
-2368 -2375 2435 -2403 0
-2367 -2373 2435 -2422 0
-2364 -2375 2435 -2427 0
-2365 -2371 2435 -2428 0
-2364 -2371 2435 -2429 0
-2449 -2436 2415 0
-2448 -2436 2389 0
-2450 -2436 2390 0
-2446 -2436 2409 0
-2445 -2436 2414 0
-2447 -2436 2406 0
-2451 -2436 2421 0
-2452 -2436 2396 0
-2440 -2437 2267 0
-2443 -2437 2255 0
-2441 -2437 2252 0
-2444 -2437 2274 0
-2442 -2437 2266 0
-2373 -2438 2415 0
-2372 -2438 2389 0
-2374 -2438 2390 0
-2370 -2438 2409 0
-2369 -2438 2414 0
-2371 -2438 2406 0
-2375 -2438 2396 0
-2367 -2376 -2439 2404 0
-2367 -2381 -2439 2412 0
-2367 -2377 -2439 2391 0
-2365 -2380 -2439 2392 0
-2367 -2383 -2439 2394 0
-2364 -2377 -2439 2395 0
-2366 -2377 -2439 2407 0
-2368 -2380 -2439 2423 0
-2366 -2383 -2439 2397 0
-2367 -2379 -2439 2398 0
-2366 -2380 -2439 2416 0
-2364 -2380 -2439 2408 0
-2368 -2381 -2439 2400 0
-2368 -2377 -2439 2424 0
-2364 -2381 -2439 2425 0
-2367 -2378 -2439 2418 0
-2365 -2377 -2439 2419 0
-2368 -2376 -2439 2402 0
-2368 -2378 -2439 2420 0
-2365 -2383 -2439 2411 0
-2368 -2383 -2439 2403 0
-2367 -2380 -2439 2422 0
-2364 -2383 -2439 2427 0
-2365 -2378 -2439 2428 0
-2364 -2378 -2439 2429 0
-2453 2376 -2364 0
-2453 -2376 2364 0
-2453 2381 -2365 0
-2453 -2381 2365 0
-2453 2378 -2366 0
-2453 -2378 2366 0
-2453 2382 -2367 0
-2453 -2382 2367 0
-2453 2379 -2368 0
-2453 -2379 2368 0
-2376 -2364 2453 0
-2381 -2365 2453 0
-2378 -2366 2453 0
-2382 -2367 2453 0
-2379 -2368 2453 0
-2380 -2453 0
-2377 -2453 0
-2383 -2453 0
-2454 2376 -2369 0
-2454 -2376 2369 0
-2454 2377 -2370 0
-2454 -2377 2370 0
-2454 2378 -2371 0
-2454 -2378 2371 0
-2454 2379 -2372 0
-2454 -2379 2372 0
-2454 2380 -2373 0
-2454 -2380 2373 0
-2454 2381 -2374 0
-2454 -2381 2374 0
-2454 2383 -2375 0
-2454 -2383 2375 0
-2376 -2369 2454 0
-2377 -2370 2454 0
-2378 -2371 2454 0
-2379 -2372 2454 0
-2380 -2373 2454 0
-2381 -2374 2454 0
-2383 -2375 2454 0
-2382 -2454 0
-2359 -2430 2453 0
-2455 2364 -2369 0
-2455 -2364 2369 0
-2455 2365 -2374 0
-2455 -2365 2374 0
-2455 2366 -2371 0
-2455 -2366 2371 0
-2455 2368 -2372 0
-2455 -2368 2372 0
-2364 -2369 2455 0
-2365 -2374 2455 0
-2366 -2371 2455 0
-2368 -2372 2455 0
-2367 -2455 0
-2373 -2455 0
-2370 -2455 0
-2375 -2455 0
-2359 -2434 2455 0
-2359 2433 0
-2359 2439 0
-2359 2438 0
-2456 2369 -2376 0
-2456 -2369 2376 0
-2456 2370 -2377 0
-2456 -2370 2377 0
-2456 2371 -2378 0
-2456 -2371 2378 0
-2456 2372 -2379 0
-2456 -2372 2379 0
-2456 2373 -2380 0
-2456 -2373 2380 0
-2456 2374 -2381 0
-2456 -2374 2381 0
-2456 2375 -2383 0
-2456 -2375 2383 0
-2369 -2376 2456 0
-2370 -2377 2456 0
-2371 -2378 2456 0
-2372 -2379 2456 0
-2373 -2380 2456 0
-2374 -2381 2456 0
-2375 -2383 2456 0
-2382 -2456 0
-2359 -2435 2456 0
-2385 -2444 -2451 0
-2385 -2444 -2448 0
-2385 -2440 -2451 0
-2385 -2440 -2448 0
-2385 -2440 -2445 0
-2385 -2441 -2451 0
-2385 -2441 -2450 0
-2385 -2441 -2448 0
-2385 -2441 -2445 0
-2385 -2442 -2451 0
-2385 -2442 -2450 0
-2385 -2442 -2448 0
-2385 -2442 -2445 0
-2385 -2442 -2447 0
-2385 -2443 -2451 0
-2387 -2444 -2451 0
-2387 -2444 -2448 0
-2387 -2440 -2451 0
-2387 -2440 -2448 0
-2387 -2440 -2445 0
-2387 -2441 -2451 0
-2387 -2441 -2450 0
-2387 -2441 -2448 0
-2387 -2441 -2445 0
-2387 -2442 -2451 0
-2387 -2442 -2450 0
-2387 -2442 -2448 0
-2387 -2442 -2445 0
-2387 -2442 -2447 0
-2387 -2443 -2451 0
-2240 2385 2386 2387 0
-2239 2384 0
-2385 2240 0
-2386 2240 0
-2387 2240 0
-2384 2239 0
-2389 151 -2388 0
2389 -151 -2388 0
-2390 152 -2388 0
2390 -152 -2388 0
-2391 154 -2388 0
2391 -154 -2388 0
-2392 155 -2388 0
2392 -155 -2388 0
-2393 385 -2388 0
2393 -385 -2388 0
-2394 156 -2388 0
2394 -156 -2388 0
-2395 158 -2388 0
2395 -158 -2388 0
-2396 159 -2388 0
2396 -159 -2388 0
-2397 160 -2388 0
2397 -160 -2388 0
-2248 602 -2388 0
2248 -602 -2388 0
-2398 10 -2388 0
2398 -10 -2388 0
-2399 162 -2388 0
2399 -162 -2388 0
-2400 163 -2388 0
2400 -163 -2388 0
-2252 270 -2388 0
2252 -270 -2388 0
-2401 386 -2388 0
2401 -386 -2388 0
-2402 11 -2388 0
2402 -11 -2388 0
-2255 271 -2388 0
2255 -271 -2388 0
-2403 167 -2388 0
2403 -167 -2388 0
-2404 170 -2388 0
2404 -170 -2388 0
-2405 171 -2388 0
2405 -171 -2388 0
-2406 172 -2388 0
2406 -172 -2388 0
-2259 273 -2388 0
2259 -273 -2388 0
-2407 12 -2388 0
2407 -12 -2388 0
-2408 174 -2388 0
2408 -174 -2388 0
-2409 274 -2388 0
2409 -274 -2388 0
-2410 387 -2388 0
2410 -387 -2388 0
-2411 176 -2388 0
2411 -176 -2388 0
-2412 153 -2388 0
2412 -153 -2388 0
-2413 388 -2388 0
2413 -388 -2388 0
-2414 157 -2388 0
2414 -157 -2388 0
-2266 267 -2388 0
2266 -267 -2388 0
-2415 268 -2388 0
2415 -268 -2388 0
-2267 269 -2388 0
2267 -269 -2388 0
-2416 161 -2388 0
2416 -161 -2388 0
-2417 389 -2388 0
2417 -389 -2388 0
-2418 164 -2388 0
2418 -164 -2388 0
-2419 165 -2388 0
2419 -165 -2388 0
-2420 166 -2388 0
2420 -166 -2388 0
-2421 168 -2388 0
2421 -168 -2388 0
-2422 169 -2388 0
2422 -169 -2388 0
-2274 272 -2388 0
2274 -272 -2388 0
-2423 173 -2388 0
2423 -173 -2388 0
-2424 175 -2388 0
2424 -175 -2388 0
-2425 13 -2388 0
2425 -13 -2388 0
-2278 603 -2388 0
2278 -603 -2388 0
-2426 390 -2388 0
2426 -390 -2388 0
-2427 177 -2388 0
2427 -177 -2388 0
-2428 14 -2388 0
2428 -14 -2388 0
-2429 178 -2388 0
2429 -178 -2388 0
-2295 2457 0
-2457 2295 0
a 2388 0
